(set-logic QF_UF)
(declare-fun A0 () Bool)
(declare-fun A2 () Bool)
(declare-fun A3 () Bool)
(declare-fun A4 () Bool)
(declare-fun A5 () Bool)
(declare-fun A6 () Bool)
(declare-fun A7 () Bool)
(declare-fun A8 () Bool)
(declare-fun A10 () Bool)
(declare-fun A11 () Bool)
(declare-fun A12 () Bool)
(declare-fun A14 () Bool)
(declare-fun A15 () Bool)
(declare-fun A16 () Bool)
(declare-fun A17 () Bool)
(declare-fun A18 () Bool)
(declare-fun A19 () Bool)
(declare-fun A20 () Bool)
(declare-fun A21 () Bool)
(declare-fun A22 () Bool)
(declare-fun A23 () Bool)
(declare-fun A24 () Bool)
(declare-fun A26 () Bool)
(declare-fun A27 () Bool)
(declare-fun A28 () Bool)
(declare-fun A29 () Bool)
(assert (let ((.def_0 (not A19))) (let ((.def_1 (not A2))) (let ((.def_2 (or .def_1 .def_0))) (let ((.def_3 (not .def_2))) (let ((.def_4 (not A22))) (let ((.def_5 (and A19 .def_4))) (let ((.def_6 (or .def_5 .def_3))) (let ((.def_7 (not .def_6))) (let ((.def_8 (not A15))) (let ((.def_9 (or .def_8 A4))) (let ((.def_10 (not .def_9))) (let ((.def_11 (and A22 A14))) (let ((.def_12 (not .def_11))) (let ((.def_13 (or .def_12 .def_10))) (let ((.def_14 (not .def_13))) (let ((.def_15 (and .def_14 .def_7))) (let ((.def_16 (not .def_15))) (let ((.def_17 (not A28))) (let ((.def_18 (and .def_17 A22))) (let ((.def_19 (not .def_18))) (let ((.def_20 (not A23))) (let ((.def_21 (not A16))) (let ((.def_22 (= .def_21 .def_20))) (let ((.def_23 (not .def_22))) (let ((.def_24 (and .def_23 .def_19))) (let ((.def_25 (not .def_24))) (let ((.def_26 (not A4))) (let ((.def_27 (or A12 .def_26))) (let ((.def_28 (not .def_27))) (let ((.def_29 (not A27))) (let ((.def_30 (= A6 .def_29))) (let ((.def_31 (not .def_30))) (let ((.def_32 (and .def_31 .def_28))) (let ((.def_33 (not .def_32))) (let ((.def_34 (or .def_33 .def_25))) (let ((.def_35 (not .def_34))) (let ((.def_36 (and .def_35 .def_16))) (let ((.def_37 (not A21))) (let ((.def_38 (and A15 .def_37))) (let ((.def_39 (not .def_38))) (let ((.def_40 (not A12))) (let ((.def_41 (not A14))) (let ((.def_42 (and .def_41 .def_40))) (let ((.def_43 (= .def_42 .def_39))) (let ((.def_44 (or A6 A19))) (let ((.def_45 (not .def_44))) (let ((.def_46 (or .def_26 .def_40))) (let ((.def_47 (not .def_46))) (let ((.def_48 (or .def_47 .def_45))) (let ((.def_49 (not .def_48))) (let ((.def_50 (or .def_49 .def_43))) (let ((.def_51 (not A10))) (let ((.def_52 (or .def_29 .def_51))) (let ((.def_53 (not .def_52))) (let ((.def_54 (and A20 .def_8))) (let ((.def_55 (not .def_54))) (let ((.def_56 (and .def_55 .def_53))) (let ((.def_57 (not .def_56))) (let ((.def_58 (not A17))) (let ((.def_59 (or .def_58 .def_20))) (let ((.def_60 (not A26))) (let ((.def_61 (or .def_60 A8))) (let ((.def_62 (not .def_61))) (let ((.def_63 (or .def_62 .def_59))) (let ((.def_64 (not .def_63))) (let ((.def_65 (and .def_64 .def_57))) (let ((.def_66 (not .def_65))) (let ((.def_67 (or .def_66 .def_50))) (let ((.def_68 (or .def_67 .def_36))) (let ((.def_69 (not .def_68))) (let ((.def_70 (or A3 A7))) (let ((.def_71 (not .def_70))) (let ((.def_72 (not A5))) (let ((.def_73 (and .def_72 A16))) (let ((.def_74 (not .def_73))) (let ((.def_75 (= .def_74 .def_71))) (let ((.def_76 (and A3 A28))) (let ((.def_77 (not .def_76))) (let ((.def_78 (not A6))) (let ((.def_79 (and A26 .def_78))) (let ((.def_80 (not .def_79))) (let ((.def_81 (and .def_80 .def_77))) (let ((.def_82 (and .def_81 .def_75))) (let ((.def_83 (not .def_82))) (let ((.def_84 (and .def_60 A11))) (let ((.def_85 (not .def_84))) (let ((.def_86 (or A15 A5))) (let ((.def_87 (or .def_86 .def_85))) (let ((.def_88 (not .def_87))) (let ((.def_89 (or A20 A22))) (let ((.def_90 (not .def_89))) (let ((.def_91 (and .def_17 .def_72))) (let ((.def_92 (not .def_91))) (let ((.def_93 (and .def_92 .def_90))) (let ((.def_94 (or .def_93 .def_88))) (let ((.def_95 (not .def_94))) (let ((.def_96 (and .def_95 .def_83))) (let ((.def_97 (not A20))) (let ((.def_98 (or A11 .def_97))) (let ((.def_99 (not .def_98))) (let ((.def_100 (or A14 .def_26))) (let ((.def_101 (= .def_100 .def_99))) (let ((.def_102 (not .def_101))) (let ((.def_103 (not A18))) (let ((.def_104 (and .def_103 A24))) (let ((.def_105 (or .def_8 A2))) (let ((.def_106 (not .def_105))) (let ((.def_107 (or .def_106 .def_104))) (let ((.def_108 (not .def_107))) (let ((.def_109 (and .def_108 .def_102))) (let ((.def_110 (and .def_8 A3))) (let ((.def_111 (not .def_110))) (let ((.def_112 (not A24))) (let ((.def_113 (and .def_112 A29))) (let ((.def_114 (and .def_113 .def_111))) (let ((.def_115 (not .def_114))) (let ((.def_116 (and A8 .def_37))) (let ((.def_117 (not A0))) (let ((.def_118 (and A4 .def_117))) (let ((.def_119 (not .def_118))) (let ((.def_120 (= .def_119 .def_116))) (let ((.def_121 (not .def_120))) (let ((.def_122 (or .def_121 .def_115))) (let ((.def_123 (and .def_122 .def_109))) (let ((.def_124 (or .def_123 .def_96))) (let ((.def_125 (not .def_124))) (let ((.def_126 (or .def_125 .def_69))) .def_126))))))))))))))))))))))))))))))))))))))))))))))))))))))))))))))))))))))))))))))))))))))))))))))))))))))))))))))))))))))))))))))))
(check-sat)
